NAME: rue_25_7
TYPE: TSP
DIMENSION: 25
EDGE_WEIGHT_TYPE: EUC_2D
NODE_COORD_SECTION
1 4 20
2 22 3
3 3 15
4 22 30
5 6 37
6 36 16
7 38 7
8 7 33
9 25 31
10 7 29
11 3 4
12 18 19
13 28 40
14 22 3
15 37 4
16 14 33
17 23 40
18 32 17
19 27 34
20 39 11
21 19 25
22 11 38
23 39 36
24 23 38
25 4 18

